
5.67544299980086
     1.0000000000000000    0.0000000000000000    0.0000000000000000
     0.8581371000000000    0.5134206000000000    0.0000000000000000
     0.8581371000000000    0.2371113000000000    0.4553887000000000
   Na   Ga   O
     1     1     2
Direct
  0.0000000000000000  0.0000000000000000  0.0000000000000000    F F F
  0.5000000328637240  0.4999998519070984 -0.4999998902036876    F F F
  0.2326558413623354  0.2326702905608884 -0.7670976464721239    F F F
 -0.2326558413623354 -0.2326702905608884  0.7670976464721239    F F F