   
   5.46650000140046
     1.0000000000000000    0.0000000000000000    0.0000000000000000
     0.0000000000000000    1.1812039000000001    0.0000000000000000
     0.0000000000000000    0.0000000000000000    0.9318782000000000
   Li   Ga   O
     4     4     8
Direct
  0.0835829000000000 -0.3753226000000000  0.0000135000000000    T T T
 -0.0835829000000000  0.3753226000000000 -0.4999865000000000    T T T
  0.4164171000000000  0.1246774000000000 -0.4999865000000000    T T T
 -0.4164171000000000 -0.1246774000000000  0.0000135000000000    T T T
  0.0809972000000000  0.1261261000000000  0.0046219000000000    T T T
 -0.0809972000000000 -0.1261261000000000 -0.4953781000000000    T T T
  0.4190028000000000 -0.3738739000000000 -0.4953781000000000    T T T
 -0.4190028000000000  0.3738739000000000  0.0046219000000000    T T T
  0.0688442000000000  0.1135038000000000  0.3734331000000000    T T T
 -0.0688442000000000 -0.1135038000000000 -0.1265669000000000    T T T
  0.4311559000000000 -0.3864962000000000 -0.1265669000000000    T T T
 -0.4311559000000000  0.3864962000000000  0.3734331000000000    T T T
  0.0923962000000000 -0.3624687000000000  0.3949854000000000    T T T
 -0.0923962000000000  0.3624687000000000 -0.1050146000000000    T T T
  0.4076038000000000  0.1375313000000000 -0.1050146000000000    T T T
 -0.4076038000000000 -0.1375313000000000  0.3949854000000000    T T T